91
197
0
37
124
33
46
49
0
67
195
142
30
117
113
25
414
262
76
28
62
57
66
47
34
0
206
35
111
113
124
106
42
36
136
52
90
59
27
40
97
0
188
142
151
446
113
117
91
59
74
95
0
107
23
41
405
31
132
17
167
413
34
101
0
86
27
78
44
31
60
182
152
22
77
0
32
70
161
157
30
101
0
50
40
87
60
52
58
112
19
50
78
40
101
0
249
102
41
26
